120 150

49
57
52
58
52
55
43
53
40
44
50
52
56
57
47
53
42
40
50
43
57
50
42
58
60
50
52
58
59
57
60
40
43
47
50
60
46
58
46
55
53
54
52
53
52
45
40
53
47
52
42
50
56
42
52
44
49
53
49
41
56
41
60
53
56
60
49
49
48
45
57
54
42
40
54
52
51
51
52
41
52
55
54
56
49
60
41
50
55
50
45
47
48
52
52
56
54
53
49
47
40
42
57
60
60
53
43
52
60
46
49
52
56
49
45
43
44
44
45
49